mapa = [|
         9,9,9,9,9,9,9|
         9,8,8,8,8,8,9|
         9,8,4,9,3,8,9|
         9,8,8,8,8,8,9|
         9,9,9,9,9,9,9|];
dimx = 5;
dimy = 7;
filav = 4;
colav = 4;
from = [1,2,3,4,5,6,8,9,10,11,12,13,15,16,17,18,19,20,22,23,24,25,26,27,1,2,3,4,5,6,8,9,10,11,12,13,15,16,17,18,19,20,22,23,24,25,26,27,7,14,21,28,29,30,31,32,33,34];
to = [2,3,4,5,6,7,9,10,11,12,13,14,16,17,18,19,20,21,23,24,25,26,27,28,8,9,10,11,12,13,15,16,17,18,19,20,22,23,24,25,26,27,29,30,31,32,33,34,14,21,28,35,30,31,32,33,34,35];
